10 
-1, 19, 103, 53, 32, 70, 195, 11, 11, 49
19, -1, 84, 59, 14, 46, 193, 19, 27, 55
103, 84, -1, 133, 84, 49, 227, 102, 116, 138
53, 59, 133, -1, 68, 95, 159, 71, 71, 79
32, 14, 84, 68, -1, 41, 194, 32, 41, 68
70, 46, 49, 95, 41, -1, 183, 64, 70, 100
195, 193, 227, 159, 194, 183, -1, 215, 208, 223
11, 19, 102, 71, 32, 64, 215, -1, 5, 41
11, 27, 116, 71, 41, 70, 208, 5, -1, 38
49, 55, 138, 79, 68, 100, 223, 41, 38, -1
